(set-info :smt-lib-version 2.7)
(set-logic ALL)
(set-info :source |
Generated on: 2026-06-22
Generator: pog2smtlib-2.7 github.com/CLEARSY/pog2smtlib-2.7 (-l HO_ALL -rpX)
Application: Discharging a proof obligation generated by aTelierB from an anonymized B machine
Target solver: CVC5 (--mbqi --enum-inst)
Time limit: 1200.0
|)
(set-info :license "www.gnu.org/licenses/gpl-3.0.en.html")
(set-info :category "industrial")
(set-info :status unknown)

(define-sort |Z| () Int)
(declare-sort P 1)
(define-sort |POW Z| () (P |Z|))
(declare-fun |set.in Z| (|Z| |POW Z|) Bool)
(define-const MAXINT |Z| 2147483647)
(declare-const s364 |POW Z|)
(declare-const s337 |Z|)
(declare-fun |set.subseteq Z| (|POW Z| |POW Z|) Bool)
(assert (!
    (forall ((s |POW Z|) (t |POW Z|))
      (=
        (|set.subseteq Z| s t)
        (forall ((e |Z|)) (=> (|set.in Z| e s) (|set.in Z| e t)))
      )
    )
    :named |ax.set.subseteq Z|))
(assert (!
  (forall ((s |POW Z|) (t |POW Z|))
    (=
      (= s t)
      (forall ((e |Z|)) (= (|set.in Z| e s) (|set.in Z| e t)))))
  :named |ax.set.eq Z|))
(declare-const |set.empty Z| |POW Z|)
(assert (!
  (forall ((e |Z|)) (not (|set.in Z| e |set.empty Z|)))
  :named |ax.set.in.empty Z|))
(declare-fun |interval| (|Z| |Z|) |POW Z|)
 (assert (!
    (forall ((l |Z|) (u |Z|) (e |Z|))
        (= (|set.in Z| e (|interval| l u))
            (and (<= l e) (<= e u))))
    :named |ax.set.in.interval|))
(declare-fun |set.inter Z| (|POW Z| |POW Z|) |POW Z|)
(assert (!
  (forall ((e |Z|) (s |POW Z|) (t |POW Z|))
    (= (|set.in Z| e (|set.inter Z| s t))
       (and (|set.in Z| e s) (|set.in Z| e t))))
  :named |ax.set.in.inter Z|))
(declare-const NAT |POW Z|)
(assert (!
  (forall ((e |Z|)) (= (|set.in Z| e NAT) (and (<= 0 e) (<= e MAXINT))))
  :named |ax.set.in.NAT|))
(assert (!
  (|set.subseteq Z| s364 NAT)
  :named |Define:ctx:311|))
(assert (!
  (|set.subseteq Z| (|interval| 1 s337) s364)
  :named |Define:ctx:590|))
(assert (!
  (|set.in Z| s337 NAT)
  :named |Define:ctx:272|))
(assert (!
  (not
    (exists
      ((s568$1 |POW Z|))
      (and
        (|set.subseteq Z| s568$1 s364)
        (= (|set.inter Z| (|interval| 1 0) s568$1) |set.empty Z|))))
  :named |Goal|))
(check-sat)
(exit)
